(declare-const n Int)
(declare-const a Int)
(declare-const x Int)
(declare-const b Int)
(declare-const i Int)
(declare-const s Int)
(assert (<= 1 n))
(assert (> (+ a 1) 0))
(assert (not (> (+ a 1) 1)))
(check-sat)
(model)
